33633
34237
32829
33988
33464
33530
32871
32353
32905
34762
32114
33530
34258
33006
32034
34473
32019
31479
32279
33405
33707
34519
34167
31479
33081
33736
33515
32775
32866
33215
33852
34076
34305
33519
33513
35705
32930
35693
32808
35202
32812
33637
34620
34019
34275
34067
33574
33603
33530
33697
32931
32880
32636
34316
33761
33355
33633
32807
34090
32835
33210
35217
33339
34287
33076
32996
33634
33126
33509
34708
32828
34364
33502
33766
32436
34292
32980
32933
35107
33866
33056
33552
33729
34833
32567
34038
33059
34374
33666
32513
34133
33697
35378
34390
34745
32907
34020
34000
35479
33907
32783
35934
34094
35703
34073
32480
33118
33498
34035
33008
35597
33451
34408
33811
32835
34310
32867
34514
32667
32795
33218
33833
32893
33498
32927
34427
33343
34919
34739
35143
35686
33543
33397
32650
33494
33596
34127
33382
33355
33284
34080
33754
32680
33446
33026
34598
33242
34083
33911
32642
